robust/generate/spp_dkp_Lefebvre_et_al_2026/src/shortest_path_9_5.kp
47
266

[0.52 4.47 3.34 1.61 3.25 3.67 2.96 1.9 3.24 1.13 1.17 0.11 0.45 1.38 2.94 1.48 0.85 4.21 1.24 1.25 4.38 0.58 3.43 0.02 3.93 3.19 2.54 4.29 2.35 0.81 2.46 1.35 0.05 4.05 3.01 4.32 3.42 1.23 1.66 2.41 2.51 1.19 0.8 1.65 0.64 1.78 2.16 4.44 0.67 2.36 2.42 1.4 0.73 2.74 0.48 2.6 1.77 0.39]

[32 49 89 93 55 67 24 99 33 64 94 84 10 60 44 30 82 13 59 25 88 50 12 10 41 66 73 81 17 6 85 79 6 45 93 9 70 73 11 32 18 92 92 22 45 19 35 47 57 36 85 45 87 75 16 38 58 13]
